c Generated map
c Size: 8 * 8, weights in range: 1 to 10, walls: True, with ratio 0.1
c dim 2 of 10
c
p sp 64 90
c graph contains 64 nodes and 90 arcs
c
a 1 9 8
a 9 1 8
a 1 2 9
a 2 1 9
a 2 3 2
a 3 2 2
a 3 11 9
a 11 3 9
a 3 4 1
a 4 3 1
a 4 5 10
a 5 4 10
a 5 13 10
a 13 5 10
a 5 6 8
a 6 5 8
a 6 14 9
a 14 6 9
a 6 7 9
a 7 6 9
a 7 15 1
a 15 7 1
a 7 8 5
a 8 7 5
a 8 16 1
a 16 8 1
a 9 17 4
a 17 9 4
a 11 19 7
a 19 11 7
a 13 21 1
a 21 13 1
a 13 14 3
a 14 13 3
a 14 22 2
a 22 14 2
a 14 15 1
a 15 14 1
a 15 23 3
a 23 15 3
a 15 16 2
a 16 15 2
a 16 24 2
a 24 16 2
a 17 25 1
a 25 17 1
a 17 18 9
a 18 17 9
a 18 26 3
a 26 18 3
a 18 19 4
a 19 18 4
a 19 27 7
a 27 19 7
a 21 29 7
a 29 21 7
a 21 22 5
a 22 21 5
a 22 30 7
a 30 22 7
a 22 23 3
a 23 22 3
a 23 31 7
a 31 23 7
a 23 24 6
a 24 23 6
a 24 32 3
a 32 24 3
a 25 33 5
a 33 25 5
a 25 26 7
a 26 25 7
a 26 34 2
a 34 26 2
a 26 27 7
a 27 26 7
a 27 28 4
a 28 27 4
a 28 36 10
a 36 28 10
a 28 29 9
a 29 28 9
a 29 37 3
a 37 29 3
a 29 30 1
a 30 29 1
a 30 38 2
a 38 30 2
a 30 31 6
a 31 30 6
a 31 39 5
a 39 31 5
a 31 32 10
a 32 31 10
a 33 41 9
a 41 33 9
a 33 34 6
a 34 33 6
a 34 42 5
a 42 34 5
a 36 44 10
a 44 36 10
a 36 37 7
a 37 36 7
a 37 45 8
a 45 37 8
a 37 38 4
a 38 37 4
a 38 46 6
a 46 38 6
a 38 39 9
a 39 38 9
a 39 47 1
a 47 39 1
a 41 49 5
a 49 41 5
a 41 42 2
a 42 41 2
a 42 43 7
a 43 42 7
a 43 51 2
a 51 43 2
a 43 44 4
a 44 43 4
a 44 52 8
a 52 44 8
a 44 45 1
a 45 44 1
a 45 53 6
a 53 45 6
a 45 46 3
a 46 45 3
a 46 54 7
a 54 46 7
a 46 47 4
a 47 46 4
a 47 55 8
a 55 47 8
a 47 48 2
a 48 47 2
a 48 56 6
a 56 48 6
a 49 57 4
a 57 49 4
a 51 59 1
a 59 51 1
a 51 52 2
a 52 51 2
a 52 60 9
a 60 52 9
a 52 53 2
a 53 52 2
a 53 61 9
a 61 53 9
a 53 54 5
a 54 53 5
a 54 62 10
a 62 54 10
a 54 55 9
a 55 54 9
a 55 63 5
a 63 55 5
a 55 56 1
a 56 55 1
a 56 64 9
a 64 56 9
a 57 58 4
a 58 57 4
a 58 59 6
a 59 58 6
a 59 60 5
a 60 59 5
a 60 61 4
a 61 60 4
a 61 62 3
a 62 61 3
a 62 63 7
a 63 62 7
a 63 64 2
a 64 63 2
